
Gurobi 9.5.0 (linux64) logging started Wed Nov  8 12:07:21 2023

Set parameter LogFile to value "/lustre1/scratch/348/vsc34888/JointResearch/05.Models/06.Benchmarking/F.Representative_days_based_on_Line_Benefit_NN_OC_fy_1/9n_ByStages_nc60/openStarNet_9n_ByStages_nc60.log"
Set parameter Method to value 2
Set parameter MIPFocus to value 1
Set parameter Presolve to value 2
Set parameter RINS to value 100
Set parameter MIPGap to value 0.01
Set parameter Threads to value 36
Set parameter TimeLimit to value 604800
Set parameter IterationLimit to value 760000000
Gurobi Optimizer version 9.5.0 build v9.5.0rc5 (linux64)
Thread count: 36 physical cores, 36 logical processors, using up to 36 threads
Optimize a model with 15723 rows, 8359 columns and 49045 nonzeros
Model fingerprint: 0x90acd369
Variable types: 8323 continuous, 36 integer (36 binary)
Coefficient statistics:
  Matrix range     [8e-04, 3e+03]
  Objective range  [1e+00, 1e+00]
  Bounds range     [8e-04, 2e+00]
  RHS range        [8e-04, 1e+00]
Presolve removed 5103 rows and 2584 columns
Presolve time: 0.07s
Presolved: 10620 rows, 5775 columns, 37599 nonzeros
Variable types: 5739 continuous, 36 integer (36 binary)
Found heuristic solution: objective 890.7426843
Root relaxation presolved: 10620 rows, 5775 columns, 37599 nonzeros

Root barrier log...

Ordering time: 0.00s

Barrier statistics:
 Dense cols : 36
 AA' NZ     : 1.429e+05
 Factor NZ  : 2.864e+05 (roughly 9 MB of memory)
 Factor Ops : 1.172e+07 (less than 1 second per iteration)
 Threads    : 36

                  Objective                Residual
Iter       Primal          Dual         Primal    Dual     Compl     Time
   0   3.66839293e+05 -9.12297577e+07  6.24e+00 7.71e+02  1.31e+04     0s
   1   5.49144084e+04 -2.60779955e+07  6.98e-01 2.16e-09  1.71e+03     0s
   2   1.64437697e+04 -3.54246299e+06  8.48e-04 2.19e-09  1.70e+02     0s
   3   9.05480982e+03 -6.58876035e+04  5.85e-13 3.40e-11  3.58e+00     0s
   4   1.21373818e+03 -1.35137235e+04  3.25e-13 6.06e-12  7.04e-01     0s
   5   6.80683424e+02 -3.92354604e+03  2.27e-13 1.82e-12  2.20e-01     0s
   6   4.92469401e+02 -1.78229001e+03  1.59e-13 1.82e-12  1.09e-01     0s
   7   3.14944206e+02 -6.25506245e+02  2.13e-13 1.82e-12  4.50e-02     0s
   8   1.77810849e+02 -1.66639658e+02  2.67e-13 9.09e-13  1.65e-02     0s
   9   1.19327465e+02  3.31756162e+01  1.44e-13 9.09e-13  4.12e-03     0s
  10   1.00640304e+02  6.98875940e+01  4.47e-13 1.82e-12  1.47e-03     0s
  11   9.63426620e+01  8.09639920e+01  1.08e-12 1.82e-12  7.36e-04     0s
  12   9.45180810e+01  8.52121817e+01  2.00e-12 9.09e-13  4.45e-04     0s
  13   9.43240447e+01  8.63613184e+01  1.90e-12 1.82e-12  3.81e-04     0s
  14   9.41992837e+01  8.79838087e+01  1.84e-12 1.82e-12  2.97e-04     0s
  15   9.31574117e+01  8.86392594e+01  2.56e-11 1.82e-12  2.16e-04     0s
  16   9.17591888e+01  9.00241014e+01  1.29e-11 1.82e-12  8.30e-05     0s
  17   9.12154338e+01  9.03384999e+01  5.77e-11 9.09e-13  4.19e-05     0s
  18   9.11436287e+01  9.07482829e+01  4.75e-11 1.82e-12  1.89e-05     0s
  19   9.08714170e+01  9.07802580e+01  2.66e-10 1.82e-12  4.36e-06     0s
  20   9.08086499e+01  9.08040529e+01  1.77e-11 1.82e-12  2.20e-07     0s
  21   9.08041584e+01  9.08041502e+01  8.68e-10 1.82e-12  3.90e-10     0s
  22   9.08041537e+01  9.08041537e+01  3.78e-10 1.82e-12  3.90e-13     0s

Barrier solved model in 22 iterations and 0.40 seconds (0.29 work units)
Optimal objective 9.08041537e+01


Root relaxation: objective 9.080415e+01, 536 iterations, 0.30 seconds (0.14 work units)

    Nodes    |    Current Node    |     Objective Bounds      |     Work
 Expl Unexpl |  Obj  Depth IntInf | Incumbent    BestBd   Gap | It/Node Time

     0     0   90.80415    0    6  890.74268   90.80415  89.8%     -    0s
H    0     0                     787.5197951   90.80415  88.5%     -    0s
H    0     0                     110.3704262   98.53234  10.7%     -    0s
     0     0   98.53234    0    1  110.37043   98.53234  10.7%     -    0s
H    0     0                      99.5913951   98.53234  1.06%     -    0s
H    0     0                      99.3454262   98.53234  0.82%     -    0s
     0     0   98.56784    0    1   99.34543   98.56784  0.78%     -    0s

Cutting planes:
  MIR: 108

Explored 1 nodes (886 simplex iterations) in 0.68 seconds (0.44 work units)
Thread count was 36 (of 36 available processors)

Solution count 5: 99.3454 99.5914 110.37 ... 890.743

Optimal solution found (tolerance 1.00e-02)
Best objective 9.934542622292e+01, best bound 9.856783764694e+01, gap 0.7827%

Gurobi 9.5.0 (linux64) logging started Wed Nov  8 12:07:24 2023

Set parameter LogFile to value "/lustre1/scratch/348/vsc34888/JointResearch/05.Models/06.Benchmarking/F.Representative_days_based_on_Line_Benefit_NN_OC_fy_1/9n_ByStages_nc60/openStarNet_9n_ByStages_nc60.log"
Set parameter Method to value 2
Set parameter MIPFocus to value 1
Set parameter Presolve to value 2
Set parameter RINS to value 100
Set parameter MIPGap to value 0.01
Set parameter Threads to value 36
Set parameter TimeLimit to value 604800
Set parameter IterationLimit to value 760000000
No parameters matching 'relax_integrality' found
Gurobi Optimizer version 9.5.0 build v9.5.0rc5 (linux64)
Thread count: 36 physical cores, 36 logical processors, using up to 36 threads
Optimize a model with 15723 rows, 8323 columns and 40369 nonzeros
Model fingerprint: 0x34912fe2
Coefficient statistics:
  Matrix range     [8e-04, 3e+03]
  Objective range  [1e+00, 1e+00]
  Bounds range     [8e-04, 2e+00]
  RHS range        [8e-04, 2e+01]
Presolve removed 13563 rows and 4564 columns
Presolve time: 0.01s
Presolved: 2160 rows, 3759 columns, 8259 nonzeros

Ordering time: 0.00s

Barrier statistics:
 AA' NZ     : 6.060e+03
 Factor NZ  : 2.220e+04 (roughly 3 MB of memory)
 Factor Ops : 2.735e+05 (less than 1 second per iteration)
 Threads    : 1

                  Objective                Residual
Iter       Primal          Dual         Primal    Dual     Compl     Time
   0   4.12044632e+05 -5.36116619e+07  4.12e+00 1.82e-12  1.55e+04     0s
   1   6.48949802e+04 -1.07690222e+07  4.49e-01 1.18e-11  1.88e+03     0s
   2   1.97369944e+04 -1.79683492e+06  1.53e-02 9.05e-12  2.27e+02     0s
   3   1.07651100e+04 -5.59739661e+04  3.55e-14 5.65e-12  8.10e+00     0s
   4   1.66590522e+03 -8.63665891e+03  9.68e-14 3.64e-12  1.25e+00     0s
   5   7.44909132e+02 -2.60897395e+03  7.90e-14 1.82e-12  4.07e-01     0s
   6   4.42602628e+02 -8.62774472e+02  1.01e-13 3.64e-12  1.58e-01     0s
   7   2.34245981e+02 -1.76136263e+02  1.90e-13 1.82e-12  4.98e-02     0s
   8   1.38195392e+02  3.69915133e+01  2.03e-13 1.82e-12  1.23e-02     0s
   9   1.11839488e+02  7.53665248e+01  2.71e-13 1.82e-12  4.43e-03     0s
  10   1.04842107e+02  9.01167555e+01  3.12e-13 9.09e-13  1.79e-03     0s
  11   1.01843372e+02  9.61018063e+01  6.69e-13 1.82e-12  6.97e-04     0s
  12   1.00010440e+02  9.80409977e+01  2.20e-12 1.82e-12  2.39e-04     0s
  13   9.94100890e+01  9.90986385e+01  3.22e-12 1.82e-12  3.78e-05     0s
  14   9.93477152e+01  9.93362549e+01  8.54e-12 3.64e-12  1.39e-06     0s
  15   9.93454464e+01  9.93453902e+01  3.20e-12 1.82e-12  6.83e-09     0s
  16   9.93454262e+01  9.93454262e+01  2.10e-12 1.82e-12  2.54e-14     0s

Barrier solved model in 16 iterations and 0.04 seconds (0.04 work units)
Optimal objective 9.93454262e+01

Crossover log...

     704 DPushes remaining with DInf 0.0000000e+00                 0s
       0 DPushes remaining with DInf 0.0000000e+00                 0s

      62 PPushes remaining with PInf 0.0000000e+00                 0s
       0 PPushes remaining with PInf 0.0000000e+00                 0s

  Push phase complete: Pinf 0.0000000e+00, Dinf 1.1219498e-13      0s

Iteration    Objective       Primal Inf.    Dual Inf.      Time
     147    9.9345426e+01   0.000000e+00   0.000000e+00      0s

Solved in 147 iterations and 0.06 seconds (0.04 work units)
Optimal objective  9.934542622e+01
